* ENCODING=ISO-8859-1
NAME          CPLEX
ROWS
 N  obj1    
 G  c1      
 G  c2      
 G  c3      
 G  c4      
 G  c5      
 G  c6      
 G  c7      
 G  c8      
 G  c9      
 G  c10     
 G  c11     
 G  c12     
 G  c13     
 G  c14     
 G  c15     
 G  c16     
 G  c17     
 G  c18     
 G  c19     
 G  c20     
 G  c21     
 G  c22     
 G  c23     
 G  c24     
 G  c25     
 G  c26     
 G  c27     
 G  c28     
 G  c29     
 G  c30     
 G  c31     
 G  c32     
 G  c33     
 G  c34     
 G  c35     
 G  c36     
 G  c37     
 G  c38     
 G  c39     
 G  c40     
 G  c41     
 G  c42     
 G  c43     
 G  c44     
 G  c45     
 G  c46     
 G  c47     
 G  c48     
 G  c49     
 G  c50     
 G  c51     
 G  c52     
 G  c53     
 G  c54     
 G  c55     
 G  c56     
 G  c57     
 G  c58     
 G  c59     
 G  c60     
COLUMNS
    MARK0000  'MARKER'                 'INTORG'
    x1        obj1                            1
    x1        c3                            794
    x1        c21                           217
    x1        c38                           831
    x1        c47                           343
    x1        c52                           303
    x1        c58                           389
    x1        c59                           858
    x2        obj1                            1
    x2        c11                           277
    x2        c15                           770
    x2        c27                           773
    x2        c58                           757
    x2        c59                           642
    x3        obj1                            1
    x3        c5                            976
    x3        c12                           855
    x3        c34                           724
    x3        c43                           385
    x3        c54                           403
    x4        obj1                            1
    x4        c3                            276
    x4        c7                            795
    x4        c28                           865
    x4        c31                           743
    x4        c36                           187
    x4        c58                           778
    x5        obj1                            1
    x5        c1                            709
    x5        c23                           348
    x5        c48                           492
    x5        c50                           271
    x5        c51                           369
    x6        obj1                            1
    x6        c1                            542
    x6        c12                           225
    x6        c14                           407
    x6        c37                           785
    x6        c55                           186
    x6        c60                           816
    x7        obj1                            1
    x7        c10                           687
    x7        c13                           119
    x7        c14                           134
    x7        c25                           906
    x7        c34                           368
    x7        c47                           612
    x7        c51                           746
    x7        c53                           532
    x7        c60                           247
    x8        obj1                            1
    x8        c4                            968
    x8        c8                            951
    x8        c12                           902
    x8        c19                           584
    x8        c21                           407
    x8        c22                           909
    x8        c48                           409
    x9        obj1                            1
    x9        c22                           156
    x9        c28                           769
    x9        c35                           843
    x9        c39                           989
    x9        c57                           629
    x10       obj1                            1
    x10       c45                           855
    x11       obj1                            1
    x11       c17                           567
    x11       c37                           687
    x11       c45                           535
    x11       c54                           280
    x11       c59                           318
    x12       obj1                            1
    x12       c2                            281
    x12       c7                            456
    x12       c19                           554
    x12       c28                           218
    x12       c32                           708
    x12       c34                           643
    x12       c50                           706
    x12       c60                           914
    x13       obj1                            1
    x13       c7                            366
    x13       c8                            776
    x13       c14                           926
    x13       c32                           717
    x14       obj1                            1
    x14       c14                           107
    x14       c18                           861
    x14       c23                           672
    x14       c25                           628
    x15       obj1                            1
    x15       c5                            935
    x15       c9                            849
    x15       c10                           948
    x15       c18                           689
    x15       c33                           511
    x15       c36                           274
    x16       obj1                            1
    x16       c4                            425
    x16       c10                           955
    x16       c24                           673
    x16       c35                           848
    x16       c47                           682
    x16       c51                           563
    x16       c57                           748
    x16       c59                           562
    x17       obj1                            1
    x17       c6                            954
    x17       c12                           573
    x17       c20                           922
    x17       c24                           830
    x17       c34                           578
    x17       c42                           587
    x17       c53                           760
    x18       obj1                            1
    x18       c19                           448
    x18       c23                           277
    x18       c53                           758
    x18       c54                           343
    x19       obj1                            1
    x19       c4                            359
    x19       c22                           753
    x19       c27                           881
    x19       c36                           312
    x19       c59                           206
    x20       obj1                            1
    x20       c3                            124
    x20       c8                            997
    x20       c10                           755
    x20       c33                           121
    x20       c40                           412
    x20       c42                           766
    x20       c45                           386
    x21       obj1                            1
    x21       c3                            670
    x21       c31                           450
    x21       c35                           890
    x21       c38                           654
    x21       c44                           320
    x21       c52                           705
    x22       obj1                            1
    x22       c5                            512
    x22       c25                           200
    x22       c26                           250
    x22       c36                           951
    x22       c39                           333
    x22       c42                           204
    x22       c49                           698
    x22       c58                           896
    x23       obj1                            1
    x23       c1                            389
    x23       c2                            599
    x23       c12                           339
    x23       c17                           274
    x23       c25                           624
    x23       c27                           447
    x23       c32                           226
    x23       c35                           740
    x23       c41                           540
    x24       obj1                            1
    x24       c3                            701
    x24       c4                            370
    x24       c9                            517
    x24       c13                           660
    x24       c14                           671
    x24       c23                           888
    x24       c45                           273
    x24       c55                           267
    x25       obj1                            1
    x25       c3                            837
    x25       c9                            109
    x25       c20                           427
    x25       c28                           408
    x25       c33                           565
    x25       c40                           916
    x25       c43                           365
    x25       c48                           107
    x25       c56                           704
    x26       obj1                            1
    x26       c5                            870
    x26       c6                            320
    x26       c27                           795
    x26       c32                           504
    x26       c34                           896
    x26       c40                           215
    x26       c49                           571
    x26       c54                           175
    x26       c56                           952
    x27       obj1                            1
    x27       c1                            407
    x27       c53                           904
    x28       obj1                            1
    x28       c17                           153
    x28       c26                           293
    x28       c40                           573
    x28       c46                           867
    x28       c55                           374
    x28       c56                           112
    x29       obj1                            1
    x29       c20                           521
    x29       c27                           730
    x29       c36                           909
    x29       c44                           967
    x30       obj1                            1
    x30       c4                            880
    x30       c22                           785
    x30       c27                           965
    x30       c28                           471
    x30       c30                           638
    x30       c34                           464
    x30       c40                           742
    x30       c49                           343
    x30       c52                           148
    x30       c54                           341
    x30       c57                           146
    x31       obj1                            1
    x31       c12                           915
    x31       c14                           658
    x31       c18                           797
    x31       c35                           307
    x31       c42                           238
    x31       c43                           307
    x31       c46                           832
    x31       c51                           876
    x31       c56                           841
    x31       c59                           670
    x32       obj1                            1
    x32       c1                            650
    x32       c11                           420
    x32       c23                           848
    x32       c25                           971
    x32       c37                           533
    x32       c45                           100
    x32       c47                           759
    x32       c51                           778
    x32       c53                           285
    x32       c54                           185
    x33       obj1                            1
    x33       c23                           114
    x33       c34                           779
    x33       c43                           987
    x33       c44                           423
    x33       c57                           923
    x34       obj1                            1
    x34       c4                            558
    x34       c16                           914
    x34       c23                           433
    x34       c32                           401
    x34       c35                           316
    x34       c37                           641
    x34       c54                           448
    x35       obj1                            1
    x35       c1                            769
    x35       c9                            720
    x35       c10                           178
    x35       c14                           683
    x35       c15                           164
    x35       c17                           435
    x35       c21                           246
    x35       c47                           862
    x35       c51                           653
    x36       obj1                            1
    x36       c19                           809
    x36       c29                           405
    x36       c47                           187
    x36       c48                           314
    x36       c52                           691
    x37       obj1                            1
    x37       c9                            331
    x37       c12                           250
    x37       c33                           825
    x37       c38                           656
    x37       c47                           163
    x38       obj1                            1
    x38       c5                            338
    x38       c11                           822
    x38       c23                           619
    x38       c32                           371
    x38       c51                           909
    x38       c55                           876
    x39       obj1                            1
    x39       c4                            457
    x39       c25                           327
    x39       c36                           526
    x39       c41                           184
    x39       c43                           609
    x39       c48                           391
    x40       obj1                            1
    x40       c1                            266
    x40       c11                           907
    x40       c20                           526
    x40       c25                           523
    x40       c29                           291
    x40       c34                           536
    x40       c44                           701
    x40       c50                           449
    x40       c56                           137
    x41       obj1                            1
    x41       c13                           415
    x41       c17                           225
    x41       c26                           441
    x41       c33                           320
    x41       c45                           649
    x41       c48                           612
    x42       obj1                            1
    x42       c1                            208
    x42       c10                           702
    x42       c24                           272
    x42       c26                           600
    x42       c32                           148
    x42       c40                           483
    x42       c42                           977
    x42       c44                           456
    x42       c48                           285
    x43       obj1                            1
    x43       c8                            409
    x43       c15                           789
    x43       c30                           702
    x44       obj1                            1
    x44       c4                            522
    x44       c12                           773
    x44       c17                           545
    x44       c35                           607
    x44       c53                           941
    x44       c55                           711
    x45       obj1                            1
    x45       c10                           227
    x45       c25                           116
    x45       c29                           585
    x45       c33                           510
    x45       c39                           242
    x45       c40                           413
    x45       c42                           482
    x45       c50                           869
    x45       c54                           634
    x45       c56                           861
    x46       obj1                            1
    x46       c6                            243
    x46       c8                            409
    x46       c17                           330
    x46       c36                           608
    x46       c43                           271
    x46       c51                           332
    x46       c53                           504
    x47       obj1                            1
    x47       c3                            139
    x47       c20                           284
    x47       c27                           854
    x47       c43                           584
    x47       c44                           469
    x47       c45                           377
    x48       obj1                            1
    x48       c11                           148
    x48       c13                           222
    x48       c60                           807
    x49       obj1                            1
    x49       c2                            704
    x49       c20                           908
    x49       c36                           517
    x49       c39                           336
    x49       c47                           195
    x50       obj1                            1
    x50       c3                            370
    x50       c16                           504
    x50       c40                           665
    x51       obj1                            1
    x51       c28                           868
    x51       c41                           511
    x51       c55                           409
    x52       obj1                            1
    x52       c11                           824
    x52       c27                           608
    x53       obj1                            1
    x53       c5                            256
    x53       c9                            865
    x53       c15                           307
    x53       c18                           746
    x53       c27                           129
    x53       c31                           696
    x53       c47                           975
    x53       c50                           994
    x53       c53                           130
    x53       c56                           988
    x53       c58                           663
    x54       obj1                            1
    x54       c41                           758
    x55       obj1                            1
    x55       c2                            770
    x55       c5                            345
    x55       c9                            842
    x55       c10                           537
    x55       c32                           132
    x55       c33                           991
    x55       c43                           304
    x55       c44                           802
    x55       c60                           907
    x56       obj1                            1
    x56       c11                           485
    x56       c21                           212
    x56       c22                           469
    x56       c49                           711
    x56       c60                           950
    x57       obj1                            1
    x57       c1                            766
    x57       c11                           548
    x57       c34                           394
    x57       c35                           729
    x57       c48                           248
    x58       obj1                            1
    x58       c45                           836
    x58       c46                           706
    x59       obj1                            1
    x59       c30                           357
    x59       c40                           670
    x59       c43                           984
    x59       c44                           357
    x59       c56                           679
    x60       obj1                            1
    x60       c7                            837
    x60       c14                           950
    x60       c16                           407
    x60       c18                           916
    x60       c19                           356
    x60       c21                           430
    x60       c22                           486
    x60       c30                           988
    x60       c45                           957
    x60       c52                           485
    x60       c57                           170
    MARK0001  'MARKER'                 'INTEND'
RHS
    rhs       c1                           2353
    rhs       c2                           1177
    rhs       c3                           1956
    rhs       c4                           2270
    rhs       c5                           2116
    rhs       c6                            759
    rhs       c7                           1227
    rhs       c8                           1771
    rhs       c9                           2117
    rhs       c10                          2495
    rhs       c11                          2216
    rhs       c12                          2416
    rhs       c13                           708
    rhs       c14                          2268
    rhs       c15                          1015
    rhs       c16                           913
    rhs       c17                          1265
    rhs       c18                          2005
    rhs       c19                          1376
    rhs       c20                          1794
    rhs       c21                           756
    rhs       c22                          1779
    rhs       c23                          2100
    rhs       c24                           888
    rhs       c25                          2148
    rhs       c26                           792
    rhs       c27                          3091
    rhs       c28                          1800
    rhs       c29                           641
    rhs       c30                          1343
    rhs       c31                           945
    rhs       c32                          1604
    rhs       c33                          1922
    rhs       c34                          2691
    rhs       c35                          2640
    rhs       c36                          2142
    rhs       c37                          1323
    rhs       c38                          1071
    rhs       c39                           950
    rhs       c40                          2545
    rhs       c41                           997
    rhs       c42                          1627
    rhs       c43                          2398
    rhs       c44                          2248
    rhs       c45                          2484
    rhs       c46                          1203
    rhs       c47                          2389
    rhs       c48                          1429
    rhs       c49                          1162
    rhs       c50                          1645
    rhs       c51                          2613
    rhs       c52                          1166
    rhs       c53                          2407
    rhs       c54                          1405
    rhs       c55                          1412
    rhs       c56                          2637
    rhs       c57                          1308
    rhs       c58                          1742
    rhs       c59                          1628
    rhs       c60                          2321
BOUNDS
 LI bnd       x1        0
 LI bnd       x2        0
 LI bnd       x3        0
 LI bnd       x4        0
 LI bnd       x5        0
 LI bnd       x6        0
 LI bnd       x7        0
 LI bnd       x8        0
 LI bnd       x9        0
 LI bnd       x10       0
 LI bnd       x11       0
 LI bnd       x12       0
 LI bnd       x13       0
 LI bnd       x14       0
 LI bnd       x15       0
 LI bnd       x16       0
 LI bnd       x17       0
 LI bnd       x18       0
 LI bnd       x19       0
 LI bnd       x20       0
 LI bnd       x21       0
 LI bnd       x22       0
 LI bnd       x23       0
 LI bnd       x24       0
 LI bnd       x25       0
 LI bnd       x26       0
 LI bnd       x27       0
 LI bnd       x28       0
 LI bnd       x29       0
 LI bnd       x30       0
 LI bnd       x31       0
 LI bnd       x32       0
 LI bnd       x33       0
 LI bnd       x34       0
 LI bnd       x35       0
 LI bnd       x36       0
 LI bnd       x37       0
 LI bnd       x38       0
 LI bnd       x39       0
 LI bnd       x40       0
 LI bnd       x41       0
 LI bnd       x42       0
 LI bnd       x43       0
 LI bnd       x44       0
 LI bnd       x45       0
 LI bnd       x46       0
 LI bnd       x47       0
 LI bnd       x48       0
 LI bnd       x49       0
 LI bnd       x50       0
 LI bnd       x51       0
 LI bnd       x52       0
 LI bnd       x53       0
 LI bnd       x54       0
 LI bnd       x55       0
 LI bnd       x56       0
 LI bnd       x57       0
 LI bnd       x58       0
 LI bnd       x59       0
 LI bnd       x60       0
ENDATA
